30
17, 17, 18, 24, 20, 14, 16, 13, 24, 18, 29, 14, 26, 27, 3, 16, 26, 18, 13, 8, 14, 21, 9, 11, 18, 22, 6, 18, 5, 10
38, 42, 28, 50, 44, 31, 47, 31, 46, 32, 47, 28, 41, 45, 7, 37, 49, 44, 24, 19, 36, 41, 20, 17, 32, 35, 12, 28, 14, 26
120
